000 000 000 000 000 000 000 000 000 -99 -99 000 000 000 000 -99 -99 -99 -99 -99 000 000 -99 000 000 000 000 000 -99 -99 -99
000 000 000 000 000 000 000 000 000 000 -99 000 000 000 000 000 -99 -99 -99 000 000 000 000 000 000 000 -99 000 -99 -99 -99
000 000 000 000 000 000 000 000 000 000 -99 000 000 -99 000 000 -99 -99 -99 -99 000 000 000 000 000 000 -99 000 -99 -99 -99
000 000 000 000 000 000 000 000 000 000 000 000 000 000 000 000 000 -99 -99 -99 000 000 -99 000 000 -99 -99 -99 -99 -99 -99
000 000 000 000 000 000 000 000 000 000 000 000 000 000 000 000 000 000 -99 -99 000 000 -99 000 000 000 -99 -99 -99 -99 -99
000 000 000 000 000 000 000 000 000 000 000 000 000 000 000 000 000 000 -99 -99 000 000 000 000 -99 -99 -99 -99 -99 -99 000
000 000 000 000 000 000 000 000 000 000 000 000 000 000 000 000 000 000 -99 000 000 000 000 000 000 -99 -99 -99 -99 -99 -99
000 000 000 000 000 000 000 000 000 000 000 000 000 000 000 000 -99 -99 -99 -99 000 000 000 000 000 -99 -99 -99 -99 -99 000
000 000 000 000 000 000 000 000 000 000 000 000 000 000 000 000 -99 -99 000 -99 000 -99 000 000 000 -99 -99 -99 -99 -99 000
000 000 000 000 000 000 -99 000 000 000 000 000 000 000 000 000 -99 -99 000 000 000 -99 000 -99 000 000 -99 -99 -99 000 000
000 000 000 000 000 000 -99 000 000 000 000 000 000 000 000 000 -99 -99 000 000 -99 -99 -99 -99 000 -99 -99 -99 -99 000 000
000 000 000 000 000 000 -99 -99 000 000 000 000 000 000 000 000 000 -99 000 000 000 -99 -99 -99 000 -99 -99 -99 -99 000 000
000 000 000 000 000 000 000 000 000 000 000 000 000 000 -99 000 000 -99 000 000 000 -99 -99 -99 000 000 000 000 -99 -99 000
000 000 000 -99 000 000 000 000 000 000 000 000 000 000 -99 000 000 -99 000 000 000 000 -99 -99 000 000 000 -99 000 -99 000
000 000 000 -99 000 000 000 000 000 000 000 000 000 000 000 000 000 -99 000 000 000 000 -99 000 000 000 000 000 000 -99 -99
-99 -99 000 000 000 001 000 000 000 -99 -99 -99 000 000 000 000 000 -99 000 000 000 000 -99 000 000 000 000 000 000 000 -99
-99 000 000 000 000 001 000 000 000 000 -99 -99 -99 000 000 000 000 000 000 000 -99 000 000 000 000 000 000 000 000 000 000
000 000 001 001 002 001 001 000 000 000 000 -99 000 -99 000 000 000 000 000 000 -99 -99 000 000 000 000 000 000 000 -99 -99
000 000 002 002 002 001 001 000 000 000 000 000 000 -99 000 000 000 000 000 000 000 -99 000 -99 000 -99 -99 -99 -99 -99 -99
000 001 002 002 001 000 001 000 000 000 000 000 000 000 000 000 000 000 002 000 000 000 000 -99 -99 -99 -99 -99 -99 -99 -99
000 003 004 001 001 000 001 000 000 000 000 000 000 000 000 001 003 002 006 003 002 000 000 -99 -99 -99 -99 -99 -99 -99 -99
000 005 003 002 001 000 002 001 000 000 000 000 000 000 000 004 008 006 023 016 011 006 002 005 002 -99 -99 -99 -99 -99 -99
000 004 001 002 002 001 002 001 000 000 000 000 000 000 000 004 006 011 020 015 011 006 002 005 002 -99 -99 -99 -99 -99 -99
000 002 002 002 001 003 002 001 000 000 000 000 000 000 000 003 007 021 017 019 015 010 007 006 002 -99 -99 -99 -99 -99 -99
000 001 003 002 002 002 002 001 001 000 000 000 000 000 000 003 006 013 012 014 018 011 018 009 002 -99 -99 -99 -99 -99 -99
000 001 006 003 002 003 002 001 002 002 001 000 000 001 000 002 003 004 006 007 014 005 013 010 -99 -99 -99 -99 -99 -99 -99
000 001 005 003 004 002 001 001 002 002 001 000 000 000 000 001 001 001 002 003 007 002 006 009 006 -99 -99 -99 -99 -99 -99
000 001 005 003 003 001 001 001 001 001 001 001 000 000 000 000 000 001 001 002 003 001 001 006 005 -99 -99 -99 -99 -99 -99
000 000 002 003 003 002 001 000 001 001 001 000 000 000 000 000 000 000 000 000 001 001 -99 002 002 -99 -99 -99 -99 -99 -99
000 000 000 001 001 001 001 000 000 000 000 000 000 000 000 000 000 000 000 000 000 000 -99 000 000 -99 -99 -99 -99 -99 -99
000 000 000 000 000 000 000 000 000 000 000 000 000 000 000 000 000 000 000 -99 000 000 -99 000 000 000 001 -99 -99 -99 -99
000 000 000 000 000 000 000 000 000 000 000 000 000 000 000 000 000 000 -99 -99 -99 -99 -99 000 000 000 002 002 001 -99 -99
000 000 000 000 000 000 000 000 000 000 000 000 000 000 000 000 000 000 -99 -99 -99 -99 -99 000 000 001 002 001 000 000 000
000 000 000 000 000 000 000 000 000 000 000 000 000 000 000 000 000 000 -99 000 -99 -99 -99 000 000 001 004 002 000 000 000
000 000 000 000 000 000 000 000 000 -99 -99 -99 -99 000 000 000 000 000 000 000 000 -99 000 000 000 002 004 002 000 000 000
000 000 000 000 000 000 000 000 000 -99 000 000 000 000 000 000 000 -99 000 000 000 -99 000 000 000 000 002 000 000 000 000
000 000 000 000 000 000 000 -99 000 000 000 000 000 000 000 000 000 000 000 000 000 -99 000 000 000 000 001 000 000 000 -99
000 000 000 000 000 000 -99 -99 -99 000 -99 000 000 000 000 000 000 000 000 000 000 -99 000 000 000 000 000 000 000 000 -99
000 000 000 000 000 000 000 -99 -99 -99 -99 000 000 000 000 000 000 000 000 000 000 000 000 000 000 000 000 001 000 000 000
000 000 000 000 000 000 000 -99 -99 000 000 -99 000 000 000 000 000 000 -99 000 000 000 000 000 000 000 001 000 000 000 000
000 000 000 000 000 000 000 -99 000 000 000 000 000 000 000 000 000 -99 000 000 000 000 000 000 000 000 000 000 000 000 000
000 000 000 000 000 000 000 000 000 000 000 000 000 000 000 000 000 000 000 000 000 000 000 000 000 000 000 000 000 000 000
000 000 000 000 000 000 000 000 000 000 000 000 000 000 000 000 000 000 000 000 000 000 000 000 000 000 000 000 000 000 000
000 -99 -99 -99 000 000 000 000 000 000 001 001 001 000 000 000 000 000 000 000 000 000 000 000 000 000 000 000 000 000 000
000 000 -99 -99 000 -99 000 000 000 001 001 000 000 000 000 000 000 -99 000 000 000 000 001 000 000 000 000 000 000 -99 000
-99 -99 -99 000 -99 -99 000 000 000 001 001 000 000 001 000 000 000 000 000 000 000 000 000 000 000 000 000 000 -99 -99 000
000 -99 -99 000 -99 -99 000 000 000 000 000 000 000 000 000 000 000 000 000 000 000 000 000 000 001 000 000 000 -99 -99 -99
000 -99 -99 -99 -99 -99 000 000 000 000 000 000 001 000 000 000 000 001 000 000 000 000 000 001 000 000 002 000 001 -99 -99
000 -99 -99 -99 -99 -99 -99 000 000 000 000 000 000 000 001 001 002 002 001 000 000 001 001 001 000 000 001 000 001 -99 -99
000 -99 -99 -99 -99 -99 -99 -99 000 000 000 000 000 000 002 003 012 005 003 001 000 001 001 000 000 000 000 000 001 -99 -99
000 -99 -99 -99 -99 -99 -99 000 000 000 000 000 000 001 002 005 005 007 009 001 000 000 000 000 000 000 000 001 001 -99 -99
-99 -99 -99 -99 -99 -99 -99 -99 000 000 000 000 000 000 001 006 005 013 006 002 001 000 000 000 000 000 000 000 -99 -99 -99
-99 -99 -99 -99 -99 -99 -99 -99 -99 000 000 000 000 000 001 001 007 010 002 004 001 000 -99 -99 001 000 000 000 -99 -99 -99
-99 -99 -99 -99 -99 -99 -99 -99 -99 000 000 000 000 000 000 002 003 002 002 004 000 000 -99 -99 000 -99 000 000 -99 -99 -99
-99 -99 -99 -99 -99 -99 -99 -99 000 000 000 -99 -99 001 000 000 000 000 002 002 000 -99 -99 -99 -99 000 000 -99 -99 -99 -99
